33168
111100101000011100000000110111
27 6 2 27 24 6 15 27 27 28 6 28 14 1 14 27 8 14 27 0 27 24 2 24 14 0 27 14 29 15 6 14 6 2 27 6 8 8 24 15 27 14 6 29 13 28 3 2 14 0 27 24 2 15 8 28 25 14 27 25 29 0 25 8 13 25 0 28 27 25 25 6 28 8 13 13 3 1 8 0 13 0 14 25 6 13 6 2 24 25 28 6 25 25 0 3 27 6 0 28 28 15 28 25 6 24 6 24 27 3 14 29 27 6 28 8 28 27 14 1 14 25 28 28 8 24 2 6 29 24 14 2 25 14 3 8 3 3 28 14 6 27 28 28 25 2 24 15 27 25 24 0 2 0 8 27 2 15 3 13 3 24 14 24 13 27 1 29 13 2 13 8 14 14 29 2 0 13 29 13 2 15 24 6 27 8 6 13 28 24 0 15 28 6 25 25 25 15 14 14 